5
4
20
1 1.3 1.55 1.75 2.1
5 6 5 38 43 48 22 28 8 8 33 31 49 13 25 9 14 23 49 46 30 9 34 36 46 32 7 26 19 47 15 44 34 34 47 14 26 47 11 12 42 5 30 11 40 24 39 45 10 12 41 17 15 34 9 40 25 18 27 43 8 37 33 44 12 44 6 33 36 7 33 33 27 33 41 12 17 11 16 12 